
Gurobi 10.0.3 (linux64, gurobi_cl) logging started Thu Nov  2 11:36:17 2023

Set parameter Username
Set parameter TimeLimit to value 3600
Set parameter LogFile to value "RCPSP_737.log"
Set parameter Threads to value 32
Academic license - for non-commercial use only - expires 2024-10-30
Using license file /home/jrivera6/gurobi-licenses/v1003/compute-0-35/gurobi.lic

Gurobi Optimizer version 10.0.3 build v10.0.3rc0 (linux64)
Copyright (c) 2023, Gurobi Optimization, LLC

Read MPS format model from file RCPSP_737.mps
Reading time = 0.03 seconds
RCPSP_737: 19643 rows, 7750 columns, 68318 nonzeros

CPU model: Intel(R) Xeon(R) Gold 6130 CPU @ 2.10GHz, instruction set [SSE2|AVX|AVX2|AVX512]
Thread count: 32 physical cores, 32 logical processors, using up to 32 threads

Optimize a model with 19643 rows, 7750 columns and 68318 nonzeros
Model fingerprint: 0xa085f1ab
Variable types: 62 continuous, 7688 integer (7688 binary)
Coefficient statistics:
  Matrix range     [1e+00, 3e+02]
  Objective range  [1e+00, 1e+00]
  Bounds range     [1e+00, 1e+00]
  RHS range        [1e+00, 3e+02]
Presolve removed 8511 rows and 3159 columns
Presolve time: 4.09s
Presolved: 11132 rows, 4591 columns, 39986 nonzeros
Variable types: 61 continuous, 4530 integer (4530 binary)

Root relaxation: objective 7.200000e+01, 1525 iterations, 0.02 seconds (0.01 work units)

    Nodes    |    Current Node    |     Objective Bounds      |     Work
 Expl Unexpl |  Obj  Depth IntInf | Incumbent    BestBd   Gap | It/Node Time

     0     0   72.00000    0    4          -   72.00000      -     -    4s
     0     0   72.00000    0   16          -   72.00000      -     -    6s
H    0     0                      72.0000000   72.00000  0.00%     -    6s
     0     0   72.00000    0   18   72.00000   72.00000  0.00%     -    6s

Cutting planes:
  Gomory: 8
  Cover: 1
  Implied bound: 23
  MIR: 8
  RLT: 15
  Relax-and-lift: 30

Explored 1 nodes (5315 simplex iterations) in 6.90 seconds (3.16 work units)
Thread count was 32 (of 32 available processors)

Solution count 1: 72 

Optimal solution found (tolerance 1.00e-04)
Best objective 7.200000000000e+01, best bound 7.200000000000e+01, gap 0.0000%

Wrote result file 'RCPSP_737.sol'

